9
0 35 6 23 60 7 2 11 82 
94 0 27 56 5 41 44 97 43 
22 18 0 85 36 42 43 3 91 
82 30 100 0 63 7 77 47 49 
4 37 77 19 0 33 93 19 81 
98 9 5 93 36 0 4 88 44 
88 76 50 63 70 6 0 96 43 
71 89 52 17 10 62 16 0 16 
27 4 83 48 25 49 7 43 0 
